outputs/case_438.model.txt
financial_or_business_improvement_plan_completed = False
capital_adequacy_ratio = 40
days_after_deadline = 7
unable_to_pay_debts = False
risk_to_insured_rights = False
unable_to_fulfill_contractual_responsibilities = False
capital_increase_completed = False
merger_completed = True
net_worth_ratio = 3/2
profit_loss_accelerated_worsening = False
financial_or_business_status_significantly_worsened = False
removal_notification_sent_to_registration_authority = True
net_worth_accelerated_worsening = False
net_worth = -10
improvement_plan_approved = False
improvement_plan_effective = False
director_officer_removed = True
improvement_plan_submitted = False
director_officer_removal_notification = True
regulatory_action_authorized = False
financial_or_business_deterioration = False
capital_level_4_noncompliance = False
penalty = False
improvement_plan_accelerated_deterioration = False
under_supervision = False
payment_amount = 0
supervision_payment_limit = 0
major_contracts_or_obligations_committed = False
other_major_financial_matters = False
supervision_restrictions = True
capital_level = 4
improvement_plan_required = False
capital_level_4_penalty_period = 0